N = 11;
H = 5;
T = 2;

avail = array3d(1..N, 1..H, 1..T, [1, 4, 10, 10, 1, 10, 5, 6, 8, 1, 3, 6, 10, 6, 9, 9, 8, 6, 6, 7, 8, 4, 4, 0, 8, 6, 0, 6, 1, 1, 8, 5, 9, 7, 8, 9, 2, 2, 5, 7, 9, 4, 8, 0, 7, 9, 6, 8, 8, 10, 5, 3, 7, 2, 6, 4, 9, 6, 6, 3, 2, 8, 0, 3, 5, 2, 2, 2, 9, 0, 6, 5, 1, 4, 0, 6, 6, 0, 10, 6, 5, 5, 7, 9, 3, 7, 3, 4, 0, 3, 9, 4, 3, 10, 9, 0, 8, 4, 2, 3, 7, 10, 8, 4, 3, 7, 3, 5, 8, 4]);

r = array2d(1..H, 1..T, [0, 4, 4, 5, 5, 6, 5, 6, 2, 1]);
